(declare-fun b283 () (_ FloatingPoint 8 24))
(declare-fun b413 () (_ FloatingPoint 8 24))
(declare-fun b900 () (_ FloatingPoint 8 24))
(declare-fun b166 () (_ FloatingPoint 8 24))
(declare-fun b189 () (_ FloatingPoint 8 24))
(declare-fun b296 () (_ FloatingPoint 8 24))
(declare-fun b890 () (_ FloatingPoint 8 24))
(declare-fun b387 () (_ FloatingPoint 8 24))
(declare-fun b910 () (_ FloatingPoint 8 24))
(declare-fun b865 () (_ FloatingPoint 8 24))
(declare-fun b400 () (_ FloatingPoint 8 24))
(declare-fun b930 () (_ FloatingPoint 8 24))
(declare-fun b423 () (_ FloatingPoint 8 24))
(declare-fun b384 () (_ FloatingPoint 8 24))
(declare-fun b965 () (_ FloatingPoint 8 24))
(declare-fun b267 () (_ FloatingPoint 8 24))
(declare-fun b244 () (_ FloatingPoint 8 24))
(declare-fun b205 () (_ FloatingPoint 8 24))
(declare-fun b465 () (_ FloatingPoint 8 24))
(declare-fun b439 () (_ FloatingPoint 8 24))
(declare-fun b970 () (_ FloatingPoint 8 24))
(declare-fun b306 () (_ FloatingPoint 8 24))
(declare-fun b136 () (_ FloatingPoint 8 24))
(declare-fun b436 () (_ FloatingPoint 8 24))
(declare-fun b192 () (_ FloatingPoint 8 24))
(declare-fun b875 () (_ FloatingPoint 8 24))
(declare-fun b345 () (_ FloatingPoint 8 24))
(declare-fun b159 () (_ FloatingPoint 8 24))
(declare-fun b452 () (_ FloatingPoint 8 24))
(declare-fun b426 () (_ FloatingPoint 8 24))
(declare-fun b361 () (_ FloatingPoint 8 24))
(declare-fun b955 () (_ FloatingPoint 8 24))
(declare-fun b335 () (_ FloatingPoint 8 24))
(declare-fun b218 () (_ FloatingPoint 8 24))
(declare-fun b270 () (_ FloatingPoint 8 24))
(declare-fun b241 () (_ FloatingPoint 8 24))
(declare-fun b935 () (_ FloatingPoint 8 24))
(declare-fun b905 () (_ FloatingPoint 8 24))
(declare-fun b148 () (_ FloatingPoint 8 24))
(declare-fun b880 () (_ FloatingPoint 8 24))
(declare-fun b202 () (_ FloatingPoint 8 24))
(declare-fun b397 () (_ FloatingPoint 8 24))
(declare-fun b254 () (_ FloatingPoint 8 24))
(declare-fun b945 () (_ FloatingPoint 8 24))
(declare-fun b950 () (_ FloatingPoint 8 24))
(declare-fun b885 () (_ FloatingPoint 8 24))
(declare-fun b975 () (_ FloatingPoint 8 24))
(declare-fun b410 () (_ FloatingPoint 8 24))
(declare-fun b348 () (_ FloatingPoint 8 24))
(declare-fun b915 () (_ FloatingPoint 8 24))
(declare-fun b309 () (_ FloatingPoint 8 24))
(declare-fun b215 () (_ FloatingPoint 8 24))
(declare-fun b462 () (_ FloatingPoint 8 24))
(declare-fun b860 () (_ FloatingPoint 8 24))
(declare-fun b163 () (_ FloatingPoint 8 24))
(declare-fun b332 () (_ FloatingPoint 8 24))
(declare-fun b371 () (_ FloatingPoint 8 24))
(declare-fun b610 () (_ FloatingPoint 8 24))
(declare-fun b960 () (_ FloatingPoint 8 24))
(declare-fun b870 () (_ FloatingPoint 8 24))
(declare-fun b151 () (_ FloatingPoint 8 24))
(declare-fun b280 () (_ FloatingPoint 8 24))
(declare-fun b293 () (_ FloatingPoint 8 24))
(declare-fun b940 () (_ FloatingPoint 8 24))
(declare-fun b176 () (_ FloatingPoint 8 24))
(declare-fun b449 () (_ FloatingPoint 8 24))
(declare-fun b322 () (_ FloatingPoint 8 24))
(declare-fun b374 () (_ FloatingPoint 8 24))
(declare-fun b179 () (_ FloatingPoint 8 24))
(declare-fun b146 () (_ FloatingPoint 8 24))
(declare-fun b228 () (_ FloatingPoint 8 24))
(declare-fun b319 () (_ FloatingPoint 8 24))
(declare-fun b895 () (_ FloatingPoint 8 24))
(declare-fun b257 () (_ FloatingPoint 8 24))
(declare-fun b231 () (_ FloatingPoint 8 24))
(declare-fun b925 () (_ FloatingPoint 8 24))
(declare-fun b920 () (_ FloatingPoint 8 24))
(declare-fun b134 () (_ FloatingPoint 8 24))
(declare-fun b358 () (_ FloatingPoint 8 24))
(assert (let ((.def_86 (fp.add RNE b148 b462)))
(let ((.def_87 (fp.mul RNE b136 .def_86)))
(let ((.def_88 (fp.mul RNE .def_87 .def_87)))
(let ((.def_81 (fp.add RNE b148 b465)))
(let ((.def_83 (fp.mul RNE .def_81 b136)))
(let ((.def_84 (fp.mul RNE .def_83 .def_83)))
(let ((.def_89 (fp.add RNE .def_84 .def_88)))
(let ((.def_458 (fp.lt b159 .def_89)))
(let ((.def_459 (not .def_458)))
(let ((.def_448 (fp.add RNE b148 b146)))
(let ((.def_449 (fp.mul RNE b136 .def_448)))
(let ((.def_450 (fp.mul RNE .def_449 .def_449)))
(let ((.def_444 (fp.add RNE b148 b151)))
(let ((.def_445 (fp.mul RNE b136 .def_444)))
(let ((.def_446 (fp.mul RNE .def_445 .def_445)))
(let ((.def_451 (fp.add RNE .def_446 .def_450)))
(let ((.def_455 (= b975 .def_451)))
(let ((.def_452 (fp.lt b159 .def_451)))
(let ((.def_453 (not .def_452)))
(let ((.def_433 (fp.add RNE b148 b163)))
(let ((.def_434 (fp.mul RNE b136 .def_433)))
(let ((.def_435 (fp.mul RNE .def_434 .def_434)))
(let ((.def_429 (fp.add RNE b148 b166)))
(let ((.def_430 (fp.mul RNE b136 .def_429)))
(let ((.def_431 (fp.mul RNE .def_430 .def_430)))
(let ((.def_436 (fp.add RNE .def_431 .def_435)))
(let ((.def_440 (= b970 .def_436)))
(let ((.def_437 (fp.lt b159 .def_436)))
(let ((.def_438 (not .def_437)))
(let ((.def_418 (fp.add RNE b148 b176)))
(let ((.def_419 (fp.mul RNE b136 .def_418)))
(let ((.def_420 (fp.mul RNE .def_419 .def_419)))
(let ((.def_414 (fp.add RNE b148 b179)))
(let ((.def_415 (fp.mul RNE b136 .def_414)))
(let ((.def_416 (fp.mul RNE .def_415 .def_415)))
(let ((.def_421 (fp.add RNE .def_416 .def_420)))
(let ((.def_425 (= b965 .def_421)))
(let ((.def_422 (fp.lt b159 .def_421)))
(let ((.def_423 (not .def_422)))
(let ((.def_403 (fp.add RNE b148 b189)))
(let ((.def_404 (fp.mul RNE b136 .def_403)))
(let ((.def_405 (fp.mul RNE .def_404 .def_404)))
(let ((.def_399 (fp.add RNE b148 b192)))
(let ((.def_400 (fp.mul RNE b136 .def_399)))
(let ((.def_401 (fp.mul RNE .def_400 .def_400)))
(let ((.def_406 (fp.add RNE .def_401 .def_405)))
(let ((.def_410 (= b960 .def_406)))
(let ((.def_407 (fp.lt b159 .def_406)))
(let ((.def_408 (not .def_407)))
(let ((.def_388 (fp.add RNE b148 b202)))
(let ((.def_389 (fp.mul RNE b136 .def_388)))
(let ((.def_390 (fp.mul RNE .def_389 .def_389)))
(let ((.def_384 (fp.add RNE b148 b205)))
(let ((.def_385 (fp.mul RNE b136 .def_384)))
(let ((.def_386 (fp.mul RNE .def_385 .def_385)))
(let ((.def_391 (fp.add RNE .def_386 .def_390)))
(let ((.def_395 (= b955 .def_391)))
(let ((.def_392 (fp.lt b159 .def_391)))
(let ((.def_393 (not .def_392)))
(let ((.def_373 (fp.add RNE b148 b215)))
(let ((.def_374 (fp.mul RNE b136 .def_373)))
(let ((.def_375 (fp.mul RNE .def_374 .def_374)))
(let ((.def_369 (fp.add RNE b148 b218)))
(let ((.def_370 (fp.mul RNE b136 .def_369)))
(let ((.def_371 (fp.mul RNE .def_370 .def_370)))
(let ((.def_376 (fp.add RNE .def_371 .def_375)))
(let ((.def_380 (= b950 .def_376)))
(let ((.def_377 (fp.lt b159 .def_376)))
(let ((.def_378 (not .def_377)))
(let ((.def_358 (fp.add RNE b148 b228)))
(let ((.def_359 (fp.mul RNE b136 .def_358)))
(let ((.def_360 (fp.mul RNE .def_359 .def_359)))
(let ((.def_354 (fp.add RNE b148 b231)))
(let ((.def_355 (fp.mul RNE b136 .def_354)))
(let ((.def_356 (fp.mul RNE .def_355 .def_355)))
(let ((.def_361 (fp.add RNE .def_356 .def_360)))
(let ((.def_365 (= b945 .def_361)))
(let ((.def_362 (fp.lt b159 .def_361)))
(let ((.def_363 (not .def_362)))
(let ((.def_343 (fp.add RNE b148 b241)))
(let ((.def_344 (fp.mul RNE b136 .def_343)))
(let ((.def_345 (fp.mul RNE .def_344 .def_344)))
(let ((.def_339 (fp.add RNE b148 b244)))
(let ((.def_340 (fp.mul RNE b136 .def_339)))
(let ((.def_341 (fp.mul RNE .def_340 .def_340)))
(let ((.def_346 (fp.add RNE .def_341 .def_345)))
(let ((.def_350 (= b940 .def_346)))
(let ((.def_347 (fp.lt b159 .def_346)))
(let ((.def_348 (not .def_347)))
(let ((.def_328 (fp.add RNE b148 b254)))
(let ((.def_329 (fp.mul RNE b136 .def_328)))
(let ((.def_330 (fp.mul RNE .def_329 .def_329)))
(let ((.def_324 (fp.add RNE b148 b257)))
(let ((.def_325 (fp.mul RNE b136 .def_324)))
(let ((.def_326 (fp.mul RNE .def_325 .def_325)))
(let ((.def_331 (fp.add RNE .def_326 .def_330)))
(let ((.def_335 (= b935 .def_331)))
(let ((.def_332 (fp.lt b159 .def_331)))
(let ((.def_333 (not .def_332)))
(let ((.def_313 (fp.add RNE b148 b267)))
(let ((.def_314 (fp.mul RNE b136 .def_313)))
(let ((.def_315 (fp.mul RNE .def_314 .def_314)))
(let ((.def_309 (fp.add RNE b148 b270)))
(let ((.def_310 (fp.mul RNE b136 .def_309)))
(let ((.def_311 (fp.mul RNE .def_310 .def_310)))
(let ((.def_316 (fp.add RNE .def_311 .def_315)))
(let ((.def_320 (= b930 .def_316)))
(let ((.def_317 (fp.lt b159 .def_316)))
(let ((.def_318 (not .def_317)))
(let ((.def_298 (fp.add RNE b148 b280)))
(let ((.def_299 (fp.mul RNE b136 .def_298)))
(let ((.def_300 (fp.mul RNE .def_299 .def_299)))
(let ((.def_294 (fp.add RNE b148 b283)))
(let ((.def_295 (fp.mul RNE b136 .def_294)))
(let ((.def_296 (fp.mul RNE .def_295 .def_295)))
(let ((.def_301 (fp.add RNE .def_296 .def_300)))
(let ((.def_305 (= b925 .def_301)))
(let ((.def_302 (fp.lt b159 .def_301)))
(let ((.def_303 (not .def_302)))
(let ((.def_283 (fp.add RNE b148 b293)))
(let ((.def_284 (fp.mul RNE b136 .def_283)))
(let ((.def_285 (fp.mul RNE .def_284 .def_284)))
(let ((.def_279 (fp.add RNE b148 b296)))
(let ((.def_280 (fp.mul RNE b136 .def_279)))
(let ((.def_281 (fp.mul RNE .def_280 .def_280)))
(let ((.def_286 (fp.add RNE .def_281 .def_285)))
(let ((.def_290 (= b920 .def_286)))
(let ((.def_287 (fp.lt b159 .def_286)))
(let ((.def_288 (not .def_287)))
(let ((.def_268 (fp.add RNE b148 b306)))
(let ((.def_269 (fp.mul RNE b136 .def_268)))
(let ((.def_270 (fp.mul RNE .def_269 .def_269)))
(let ((.def_264 (fp.add RNE b148 b309)))
(let ((.def_265 (fp.mul RNE b136 .def_264)))
(let ((.def_266 (fp.mul RNE .def_265 .def_265)))
(let ((.def_271 (fp.add RNE .def_266 .def_270)))
(let ((.def_275 (= b915 .def_271)))
(let ((.def_272 (fp.lt b159 .def_271)))
(let ((.def_273 (not .def_272)))
(let ((.def_253 (fp.add RNE b148 b319)))
(let ((.def_254 (fp.mul RNE b136 .def_253)))
(let ((.def_255 (fp.mul RNE .def_254 .def_254)))
(let ((.def_249 (fp.add RNE b148 b322)))
(let ((.def_250 (fp.mul RNE b136 .def_249)))
(let ((.def_251 (fp.mul RNE .def_250 .def_250)))
(let ((.def_256 (fp.add RNE .def_251 .def_255)))
(let ((.def_260 (= b910 .def_256)))
(let ((.def_257 (fp.lt b159 .def_256)))
(let ((.def_258 (not .def_257)))
(let ((.def_238 (fp.add RNE b148 b332)))
(let ((.def_239 (fp.mul RNE b136 .def_238)))
(let ((.def_240 (fp.mul RNE .def_239 .def_239)))
(let ((.def_234 (fp.add RNE b148 b335)))
(let ((.def_235 (fp.mul RNE b136 .def_234)))
(let ((.def_236 (fp.mul RNE .def_235 .def_235)))
(let ((.def_241 (fp.add RNE .def_236 .def_240)))
(let ((.def_245 (= b905 .def_241)))
(let ((.def_242 (fp.lt b159 .def_241)))
(let ((.def_243 (not .def_242)))
(let ((.def_223 (fp.add RNE b148 b345)))
(let ((.def_224 (fp.mul RNE b136 .def_223)))
(let ((.def_225 (fp.mul RNE .def_224 .def_224)))
(let ((.def_219 (fp.add RNE b148 b348)))
(let ((.def_220 (fp.mul RNE b136 .def_219)))
(let ((.def_221 (fp.mul RNE .def_220 .def_220)))
(let ((.def_226 (fp.add RNE .def_221 .def_225)))
(let ((.def_230 (= b900 .def_226)))
(let ((.def_227 (fp.lt b159 .def_226)))
(let ((.def_228 (not .def_227)))
(let ((.def_208 (fp.add RNE b148 b358)))
(let ((.def_209 (fp.mul RNE b136 .def_208)))
(let ((.def_210 (fp.mul RNE .def_209 .def_209)))
(let ((.def_204 (fp.add RNE b148 b361)))
(let ((.def_205 (fp.mul RNE b136 .def_204)))
(let ((.def_206 (fp.mul RNE .def_205 .def_205)))
(let ((.def_211 (fp.add RNE .def_206 .def_210)))
(let ((.def_215 (= b895 .def_211)))
(let ((.def_212 (fp.lt b159 .def_211)))
(let ((.def_213 (not .def_212)))
(let ((.def_193 (fp.add RNE b148 b371)))
(let ((.def_194 (fp.mul RNE b136 .def_193)))
(let ((.def_195 (fp.mul RNE .def_194 .def_194)))
(let ((.def_189 (fp.add RNE b148 b374)))
(let ((.def_190 (fp.mul RNE b136 .def_189)))
(let ((.def_191 (fp.mul RNE .def_190 .def_190)))
(let ((.def_196 (fp.add RNE .def_191 .def_195)))
(let ((.def_200 (= b890 .def_196)))
(let ((.def_197 (fp.lt b159 .def_196)))
(let ((.def_198 (not .def_197)))
(let ((.def_178 (fp.add RNE b148 b384)))
(let ((.def_179 (fp.mul RNE b136 .def_178)))
(let ((.def_180 (fp.mul RNE .def_179 .def_179)))
(let ((.def_174 (fp.add RNE b148 b387)))
(let ((.def_175 (fp.mul RNE b136 .def_174)))
(let ((.def_176 (fp.mul RNE .def_175 .def_175)))
(let ((.def_181 (fp.add RNE .def_176 .def_180)))
(let ((.def_185 (= b885 .def_181)))
(let ((.def_182 (fp.lt b159 .def_181)))
(let ((.def_183 (not .def_182)))
(let ((.def_163 (fp.add RNE b148 b397)))
(let ((.def_164 (fp.mul RNE b136 .def_163)))
(let ((.def_165 (fp.mul RNE .def_164 .def_164)))
(let ((.def_159 (fp.add RNE b148 b400)))
(let ((.def_160 (fp.mul RNE b136 .def_159)))
(let ((.def_161 (fp.mul RNE .def_160 .def_160)))
(let ((.def_166 (fp.add RNE .def_161 .def_165)))
(let ((.def_170 (= b880 .def_166)))
(let ((.def_167 (fp.lt b159 .def_166)))
(let ((.def_168 (not .def_167)))
(let ((.def_148 (fp.add RNE b148 b410)))
(let ((.def_149 (fp.mul RNE b136 .def_148)))
(let ((.def_150 (fp.mul RNE .def_149 .def_149)))
(let ((.def_144 (fp.add RNE b148 b413)))
(let ((.def_145 (fp.mul RNE b136 .def_144)))
(let ((.def_146 (fp.mul RNE .def_145 .def_145)))
(let ((.def_151 (fp.add RNE .def_146 .def_150)))
(let ((.def_155 (= b875 .def_151)))
(let ((.def_152 (fp.lt b159 .def_151)))
(let ((.def_153 (not .def_152)))
(let ((.def_133 (fp.add RNE b148 b423)))
(let ((.def_134 (fp.mul RNE b136 .def_133)))
(let ((.def_135 (fp.mul RNE .def_134 .def_134)))
(let ((.def_129 (fp.add RNE b148 b426)))
(let ((.def_130 (fp.mul RNE b136 .def_129)))
(let ((.def_131 (fp.mul RNE .def_130 .def_130)))
(let ((.def_136 (fp.add RNE .def_131 .def_135)))
(let ((.def_140 (= b870 .def_136)))
(let ((.def_137 (fp.lt b159 .def_136)))
(let ((.def_138 (not .def_137)))
(let ((.def_118 (fp.add RNE b148 b436)))
(let ((.def_119 (fp.mul RNE b136 .def_118)))
(let ((.def_120 (fp.mul RNE .def_119 .def_119)))
(let ((.def_114 (fp.add RNE b148 b439)))
(let ((.def_115 (fp.mul RNE b136 .def_114)))
(let ((.def_116 (fp.mul RNE .def_115 .def_115)))
(let ((.def_121 (fp.add RNE .def_116 .def_120)))
(let ((.def_125 (= b865 .def_121)))
(let ((.def_122 (fp.lt b159 .def_121)))
(let ((.def_123 (not .def_122)))
(let ((.def_107 (fp.div RNE b610 b975)))
(let ((.def_109 (fp.leq b134 .def_107)))
(let ((.def_110 (not .def_109)))
(let ((.def_97 (fp.add RNE b148 b449)))
(let ((.def_98 (fp.mul RNE b136 .def_97)))
(let ((.def_99 (fp.mul RNE .def_98 .def_98)))
(let ((.def_93 (fp.add RNE b148 b452)))
(let ((.def_94 (fp.mul RNE b136 .def_93)))
(let ((.def_95 (fp.mul RNE .def_94 .def_94)))
(let ((.def_100 (fp.add RNE .def_95 .def_99)))
(let ((.def_104 (= b860 .def_100)))
(let ((.def_102 (fp.lt b159 .def_100)))
(let ((.def_103 (not .def_102)))
(let ((.def_105 (and .def_103 .def_104)))
(let ((.def_111 (and .def_105 .def_110)))
(let ((.def_90 (= b860 .def_89)))
(let ((.def_91 (not .def_90)))
(let ((.def_112 (and .def_91 .def_111)))
(let ((.def_124 (and .def_112 .def_123)))
(let ((.def_126 (and .def_124 .def_125)))
(let ((.def_77 (= b865 b860)))
(let ((.def_78 (not .def_77)))
(let ((.def_127 (and .def_78 .def_126)))
(let ((.def_139 (and .def_127 .def_138)))
(let ((.def_141 (and .def_139 .def_140)))
(let ((.def_74 (= b870 b865)))
(let ((.def_75 (not .def_74)))
(let ((.def_142 (and .def_75 .def_141)))
(let ((.def_154 (and .def_142 .def_153)))
(let ((.def_156 (and .def_154 .def_155)))
(let ((.def_71 (= b875 b870)))
(let ((.def_72 (not .def_71)))
(let ((.def_157 (and .def_72 .def_156)))
(let ((.def_169 (and .def_157 .def_168)))
(let ((.def_171 (and .def_169 .def_170)))
(let ((.def_68 (= b880 b875)))
(let ((.def_69 (not .def_68)))
(let ((.def_172 (and .def_69 .def_171)))
(let ((.def_184 (and .def_172 .def_183)))
(let ((.def_186 (and .def_184 .def_185)))
(let ((.def_65 (= b885 b880)))
(let ((.def_66 (not .def_65)))
(let ((.def_187 (and .def_66 .def_186)))
(let ((.def_199 (and .def_187 .def_198)))
(let ((.def_201 (and .def_199 .def_200)))
(let ((.def_62 (= b890 b885)))
(let ((.def_63 (not .def_62)))
(let ((.def_202 (and .def_63 .def_201)))
(let ((.def_214 (and .def_202 .def_213)))
(let ((.def_216 (and .def_214 .def_215)))
(let ((.def_59 (= b895 b890)))
(let ((.def_60 (not .def_59)))
(let ((.def_217 (and .def_60 .def_216)))
(let ((.def_229 (and .def_217 .def_228)))
(let ((.def_231 (and .def_229 .def_230)))
(let ((.def_56 (= b900 b895)))
(let ((.def_57 (not .def_56)))
(let ((.def_232 (and .def_57 .def_231)))
(let ((.def_244 (and .def_232 .def_243)))
(let ((.def_246 (and .def_244 .def_245)))
(let ((.def_53 (= b905 b900)))
(let ((.def_54 (not .def_53)))
(let ((.def_247 (and .def_54 .def_246)))
(let ((.def_259 (and .def_247 .def_258)))
(let ((.def_261 (and .def_259 .def_260)))
(let ((.def_50 (= b910 b905)))
(let ((.def_51 (not .def_50)))
(let ((.def_262 (and .def_51 .def_261)))
(let ((.def_274 (and .def_262 .def_273)))
(let ((.def_276 (and .def_274 .def_275)))
(let ((.def_47 (= b915 b910)))
(let ((.def_48 (not .def_47)))
(let ((.def_277 (and .def_48 .def_276)))
(let ((.def_289 (and .def_277 .def_288)))
(let ((.def_291 (and .def_289 .def_290)))
(let ((.def_44 (= b920 b915)))
(let ((.def_45 (not .def_44)))
(let ((.def_292 (and .def_45 .def_291)))
(let ((.def_304 (and .def_292 .def_303)))
(let ((.def_306 (and .def_304 .def_305)))
(let ((.def_41 (= b925 b920)))
(let ((.def_42 (not .def_41)))
(let ((.def_307 (and .def_42 .def_306)))
(let ((.def_319 (and .def_307 .def_318)))
(let ((.def_321 (and .def_319 .def_320)))
(let ((.def_38 (= b930 b925)))
(let ((.def_39 (not .def_38)))
(let ((.def_322 (and .def_39 .def_321)))
(let ((.def_334 (and .def_322 .def_333)))
(let ((.def_336 (and .def_334 .def_335)))
(let ((.def_35 (= b935 b930)))
(let ((.def_36 (not .def_35)))
(let ((.def_337 (and .def_36 .def_336)))
(let ((.def_349 (and .def_337 .def_348)))
(let ((.def_351 (and .def_349 .def_350)))
(let ((.def_32 (= b940 b935)))
(let ((.def_33 (not .def_32)))
(let ((.def_352 (and .def_33 .def_351)))
(let ((.def_364 (and .def_352 .def_363)))
(let ((.def_366 (and .def_364 .def_365)))
(let ((.def_29 (= b945 b940)))
(let ((.def_30 (not .def_29)))
(let ((.def_367 (and .def_30 .def_366)))
(let ((.def_379 (and .def_367 .def_378)))
(let ((.def_381 (and .def_379 .def_380)))
(let ((.def_26 (= b950 b945)))
(let ((.def_27 (not .def_26)))
(let ((.def_382 (and .def_27 .def_381)))
(let ((.def_394 (and .def_382 .def_393)))
(let ((.def_396 (and .def_394 .def_395)))
(let ((.def_23 (= b955 b950)))
(let ((.def_24 (not .def_23)))
(let ((.def_397 (and .def_24 .def_396)))
(let ((.def_409 (and .def_397 .def_408)))
(let ((.def_411 (and .def_409 .def_410)))
(let ((.def_20 (= b960 b955)))
(let ((.def_21 (not .def_20)))
(let ((.def_412 (and .def_21 .def_411)))
(let ((.def_424 (and .def_412 .def_423)))
(let ((.def_426 (and .def_424 .def_425)))
(let ((.def_17 (= b965 b960)))
(let ((.def_18 (not .def_17)))
(let ((.def_427 (and .def_18 .def_426)))
(let ((.def_439 (and .def_427 .def_438)))
(let ((.def_441 (and .def_439 .def_440)))
(let ((.def_14 (= b970 b965)))
(let ((.def_15 (not .def_14)))
(let ((.def_442 (and .def_15 .def_441)))
(let ((.def_454 (and .def_442 .def_453)))
(let ((.def_456 (and .def_454 .def_455)))
(let ((.def_11 (= b970 b975)))
(let ((.def_12 (not .def_11)))
(let ((.def_457 (and .def_12 .def_456)))
(let ((.def_460 (and .def_457 .def_459)))
.def_460))))))))))))))))))))))))))))))))))))))))))))))))))))))))))))))))))))))))))))))))))))))))))))))))))))))))))))))))))))))))))))))))))))))))))))))))))))))))))))))))))))))))))))))))))))))))))))))))))))))))))))))))))))))))))))))))))))))))))))))))))))))))))))))))))))))))))))))))))))))))))))))))))))))))))))))))))))))))))))))))))))))))))))))))))))))))))))))))))))))))))))))))))))))
(check-sat)
